10 45
1 2 3
1 3 20
1 4 17
1 5 9
1 6 5
1 7 26
1 8 8
1 9 19
1 10 8
2 3 16
2 4 13
2 5 21
2 6 28
2 7 17
2 8 19
2 9 10
2 10 27
3 4 12
3 5 13
3 6 9
3 7 29
3 8 15
3 9 29
3 10 2
4 5 27
4 6 18
4 7 14
4 8 6
4 9 29
4 10 24
5 6 9
5 7 19
5 8 4
5 9 21
5 10 21
6 7 7
6 8 27
6 9 10
6 10 9
7 8 26
7 9 2
7 10 6
8 9 9
8 10 5
9 10 29
